(set-info :smt-lib-version 2.6)
(set-logic QF_NIA)
(set-info :source |
Generated by: Cristina Borralleras, Daniel Larraz, Albert Oliveras, Enric Rodriguez-Carbonell, Albert Rubio
Generated on: 2017-04-27
Generator: VeryMax
Application: Termination proving
Target solver: barcelogic
|)
(set-info :license "https://creativecommons.org/licenses/by/4.0/")
(set-info :category "industrial")
(set-info :status unsat)
(declare-fun Nl2arg11 () Int)
(declare-fun lam0n0 () Int)
(declare-fun lam0n1 () Int)
(declare-fun lam0n2 () Int)
(declare-fun Nl2CT1 () Int)
(declare-fun lam1n0 () Int)
(declare-fun lam1n1 () Int)
(declare-fun lam1n2 () Int)
(declare-fun lam2n0 () Int)
(declare-fun lam2n1 () Int)
(declare-fun lam2n2 () Int)
(declare-fun lam2n3 () Int)
(declare-fun lam2n4 () Int)
(declare-fun undef10 () Int)
(declare-fun undef9 () Int)
(declare-fun arg1 () Int)
(declare-fun lam6n0 () Int)
(declare-fun lam6n1 () Int)
(declare-fun lam6n2 () Int)
(declare-fun RFN1_CT () Int)
(declare-fun RFN1_arg1 () Int)
(declare-fun lam4n0 () Int)
(declare-fun lam4n1 () Int)
(declare-fun lam4n2 () Int)
(declare-fun lam5n0 () Int)
(declare-fun lam5n1 () Int)
(declare-fun lam5n2 () Int)
(declare-fun lam3n0 () Int)
(declare-fun lam3n1 () Int)
(declare-fun lam3n2 () Int)
(assert ( and ( <= ( - 35 ) Nl2arg11 ) ( <= Nl2arg11 35 ) ))
(assert ( or ( and ( >= lam0n0 0 ) ( >= lam0n1 0 ) ( >= lam0n2 0 ) ( > ( + ( * 31 lam0n0 ) ( * ( - 35 ) lam0n1 ) ( * Nl2CT1 lam0n2 ) ( - 1 ) ) 0 ) ( = ( + ( * ( - 1 ) lam0n0 ) ( * 1 lam0n1 ) ( * Nl2arg11 lam0n2 ) ) 0 ) ) ( and ( >= lam1n0 0 ) ( >= lam1n1 0 ) ( >= lam1n2 0 ) ( > ( + ( * 31 lam1n0 ) ( * ( - 35 ) lam1n1 ) ( * Nl2CT1 lam1n2 ) ( - 1 ( + Nl2CT1 ( * Nl2arg11 35 ) ) ) ) 0 ) ( = ( + ( * ( - 1 ) lam1n0 ) ( * 1 lam1n1 ) ( * Nl2arg11 lam1n2 ) ) 0 ) ) ))
(assert ( and ( <= ( * ( - 1 ) undef10 ) 0 ) ( <= ( + 1 ( * ( - 1 ) undef9 ) ) 0 ) ( not ( <= ( + ( - 30 ) arg1 ) 0 ) ) ( not ( <= ( + 36 ( * ( - 1 ) arg1 ) ) 0 ) ) ( = ( + arg1 ( * ( - 1 ) undef10 ) ) 0 ) ( <= ( + Nl2CT1 ( * ( + 0 Nl2arg11 ) arg1 ) ) 0 ) ))
(assert ( or ( and ( and ( >= lam6n0 0 ) ( >= lam6n1 0 ) ( >= lam6n2 0 ) ( > ( + ( * 31 lam6n0 ) ( * ( - 35 ) lam6n1 ) ( * Nl2CT1 lam6n2 ) ( - 1 ( - ( + RFN1_CT ( * RFN1_arg1 35 ) ) RFN1_CT ) ) ) 0 ) ( = ( + ( * ( - 1 ) lam6n0 ) ( * 1 lam6n1 ) ( * Nl2arg11 lam6n2 ) ( - ( - RFN1_arg1 ) ) ) 0 ) ) ( and ( and ( >= lam4n0 0 ) ( >= lam4n1 0 ) ( >= lam4n2 0 ) ( > ( + ( * 31 lam4n0 ) ( * ( - 35 ) lam4n1 ) ( * Nl2CT1 lam4n2 ) ( - 1 ( - RFN1_CT ) ) ) 0 ) ( = ( + ( * ( - 1 ) lam4n0 ) ( * 1 lam4n1 ) ( * Nl2arg11 lam4n2 ) ( - ( - RFN1_arg1 ) ) ) 0 ) ) ( and ( >= lam5n0 0 ) ( >= lam5n1 0 ) ( >= lam5n2 0 ) ( > ( + ( * 31 lam5n0 ) ( * ( - 35 ) lam5n1 ) ( * Nl2CT1 lam5n2 ) ( - 1 ( + ( - ( + RFN1_CT ( * RFN1_arg1 35 ) ) RFN1_CT ) 1 ) ) ) 0 ) ( = ( + ( * ( - 1 ) lam5n0 ) ( * 1 lam5n1 ) ( * Nl2arg11 lam5n2 ) ( - ( - RFN1_arg1 ) ) ) 0 ) ) ) ) ( and ( >= lam3n0 0 ) ( >= lam3n1 0 ) ( >= lam3n2 0 ) ( > ( + ( * 31 lam3n0 ) ( * ( - 35 ) lam3n1 ) ( * Nl2CT1 lam3n2 ) ( - 1 ) ) 0 ) ( = ( + ( * ( - 1 ) lam3n0 ) ( * 1 lam3n1 ) ( * Nl2arg11 lam3n2 ) ) 0 ) ) ))
(check-sat)
(exit)
